(declare-const |y':47:55:58| Int)
(declare-const |K:52:53:56| Int)
(declare-const |x':46:54:57| Int)
(declare-const |havoc:0| Int)
(assert (and (< (+ (- |havoc:0|) -1000) 0) (< (+ |havoc:0| -1000000) 0)
               (or (not (<= (- |K:52:53:56|) 0))
                     (= (+ (* 2 |x':46:54:57|)
                             (- (* |K:52:53:56| |K:52:53:56|)) |K:52:53:56|
                             (* -2 (* |K:52:53:56| |havoc:0|)) 100) 0))
               (or (not (<= (- |K:52:53:56|) 0))
                     (= (+ |y':47:55:58| (- |K:52:53:56|) (- |havoc:0|)) 0))
               (or (and (= |K:52:53:56| 0)
                          (= (+ (- |y':47:55:58|) |havoc:0|) 0)
                          (= (+ (- |x':46:54:57|) -50) 0))
                     (and (<= (+ (- |K:52:53:56|) 1) 0)
                            (<= (+ (- |y':47:55:58|) |x':46:54:57| 2) 0)))
               (<= (- |K:52:53:56|) 0) (<= (- |x':46:54:57|) 0)
               (not (< (- |y':47:55:58|) 0))))
(check-sat)
